w = 19;
h = 19;
n = 14;
m = 27;
rect_size = [|
3, 3|
3, 4|
4, 3|
3, 5|
5, 3|
3, 6|
6, 3|
3, 7|
7, 3|
3, 8|
8, 3|
3, 9|
9, 3|
3, 10|
10, 3|
3, 11|
11, 3|
3, 13|
13, 3|
3, 19|
19, 3|
4, 5|
5, 4|
4, 6|
6, 4|
4, 8|
8, 4|];
rect_offset = [|
0, 0|
0, 0|
0, 0|
0, 0|
0, 0|
0, 0|
0, 0|
0, 0|
0, 0|
0, 0|
0, 0|
0, 0|
0, 0|
0, 0|
0, 0|
0, 0|
0, 0|
0, 0|
0, 0|
0, 0|
0, 0|
0, 0|
0, 0|
0, 0|
0, 0|
0, 0|
0, 0|];
shape = [{1}, {2}, {3}, {4}, {5}, {6}, {7}, {8}, {9}, {10}, {11}, {12}, {13}, {14}, {15}, {16}, {17}, {18}, {19}, {20}, {21}, {22}, {23}, {24}, {25}, {26}, {27}];
shapeind = [{1}, {2, 3}, {4, 5}, {6, 7}, {8, 9}, {10, 11}, {12, 13}, {14, 15}, {16, 17}, {18, 19}, {20, 21}, {22, 23}, {24, 25}, {26, 27}];
ncopy = [1, 1, 1, 1, 1, 1, 1, 1, 1, 1, 1, 1, 1, 1];
c = 14;
